c 
c G(n,p) graph
c graph gen seed     : 22284
c number of vertices : 25
c max number of edges: 500
c edge probability   : 0.400000
c data structure     : sparse
c
c           Graph Stats
c number of vertices  : 25
c nonisolated vertices: 25
c number of edges     : 114
c edge density        : 0.380000
c max degree          : 15
c avg degree          : 9.12
c min degree          : 4
p col 25 114
e 1 25
e 1 23
e 1 20
e 1 19
e 1 18
e 1 16
e 1 15
e 1 14
e 1 13
e 1 9
e 1 7
e 1 6
e 1 5
e 1 4
e 1 2
e 2 21
e 2 20
e 2 19
e 2 16
e 2 15
e 2 14
e 2 13
e 2 8
e 2 6
e 2 5
e 3 23
e 3 19
e 3 14
e 3 13
e 4 25
e 4 24
e 4 22
e 4 21
e 4 15
e 4 12
e 4 10
e 5 25
e 5 20
e 5 17
e 5 15
e 5 14
e 5 12
e 5 6
e 6 23
e 6 22
e 6 21
e 6 19
e 6 16
e 6 14
e 6 9
e 7 25
e 7 19
e 7 18
e 7 17
e 7 13
e 7 9
e 8 22
e 8 19
e 8 17
e 8 16
e 9 25
e 9 20
e 9 17
e 9 16
e 9 15
e 10 22
e 10 19
e 10 18
e 10 17
e 10 16
e 10 11
e 11 21
e 11 17
e 11 16
e 11 14
e 11 12
e 12 25
e 12 24
e 12 19
e 13 25
e 13 23
e 13 22
e 13 21
e 13 17
e 13 16
e 14 23
e 14 22
e 14 20
e 14 18
e 14 15
e 15 21
e 15 20
e 15 19
e 15 18
e 15 17
e 15 16
e 16 25
e 16 21
e 16 18
e 17 25
e 17 21
e 17 20
e 17 18
e 18 22
e 18 19
e 19 23
e 19 21
e 19 20
e 20 24
e 20 22
e 22 24
e 23 25
e 23 24
e 24 25
